c qbfgen params: ./generators/blocksqbf/blocksqbf -c 3 -b 2 -bs 2 -bs 1 -bc 1 -bc 1
c time: Thu Oct  4 17:44:46 2012
c seed = 2147172708
c sort clauses = no
c dup. resolve limit = 100
c verbosity = 0
c num blocks = 2
c num clauses = 3
c block_sizes[0] = 2
c block_sizes[1] = 1
c num vars = 3
c perblock_nums[0] = 1
c perblock_nums[1] = 1
c clause len = 2
c minblockids[0] = 1
c maxblockids[0] = 2
c minblockids[1] = 3
c maxblockids[1] = 3
p cnf 3 3
a 1 2 0
e 3 0
-2 3 0
1 -3 0
2 3 0
